StudentsNr = 10;
InstructorsNr = 9;
DaysNr = 2;
SlotsPerDay = 10;
AvailabilitySlotsLenght = 5;
RoomNr = 1;
ProgrammNr = 1;
DegreeNr = 3;
RolesNr = 3;
CoursesNr = 8;
InstructorsProgramm = [{1}, {1}, {1}, {1}, {1}, {1}, {1}, {1}, {1}];
InstructorRolesPerProgramm = [|{3, 5, 7, 8, 9}, {1, 2, 3, 7, 8, 9}, {4, 7, 9}|];
InstructorsAvailability = [|1, 1, 1, 1, |0, 1, 1, 1, |1, 1, 1, 1, |0, 0, 0, 1, |1, 0, 1, 1, |1, 0, 0, 0, |1, 1, 1, 1, |1, 1, 0, 0, |1, 1, 1, 1|];
StudentsProgramm = [1, 1, 1, 1, 1, 1, 1, 1, 1, 1];
StudentsDegree = [2, 1, 2, 2, 2, 2, 3, 3, 1, 3];
StudentsSupervisorId = [1, 8, 1, 7, 2, 9, 6, 8, 1, 8];
StudentsCourseIds = [{1, 2, 3, 4, 5, 6, 7, 8}, {2, 3, 6, 7, 8}, {1, 2, 3, 4, 5, 6, 7, 8}, {1, 2, 3, 4, 5, 6, 7, 8}, {1, 2, 3, 4, 5, 6, 7, 8}, {1, 2, 3, 4, 5, 6, 7, 8}, {6, 8}, {5, 7}, {1, 3, 5, 6, 7}, {3, 8}];
StudentsAvailability = [|1, 1, 1, 1, |1, 1, 1, 1, |1, 1, 0, 0, |1, 1, 1, 1, |0, 0, 0, 1, |1, 1, 1, 1, |0, 1, 1, 1, |1, 1, 1, 1, |1, 1, 1, 1, |0, 1, 1, 1|];
TheoryticalMinCard = [0, 0, 0, 0, 0, 0, 1, 0, 0, 0];
CoursesInstructorIds = [{3, 5, 7, 8, 9}, {3, 5, 6}, {1, 2, 4, 5, 6, 9}, {5}, {1, 7, 9}, {2, 4, 5, 9}, {5}, {1, 7}];
RolesDemands = [2, 3, 1];
RolesContinuity = [2];
ExamLen = [1, 2, 1, 1, 1, 1, 2, 2, 2, 2];
LunchTsMinLen = 0;
LunchStarts = [2..7, 15..16];
SupervisorAvailable = 5;
OptimalLunchLenght = [3, 0];
OptimalStartTs = [1, 0];
OptimalFinishTs = [1, 10];
MinimizeRooms = 400;
RolesSoftContinuity = [|1, 2, 3|2, 0, 2|];
SameDegreeInRoom = 0;
Mergeability = 0;
